p tw 103 115
1 2
2 16
3 7
4 5
5 6
7 8
8 9
9 10
10 11
11 12
11 15
12 13
13 14
14 5
15 17
16 27
16 38
17 18
18 19
19 82
20 21
21 22
22 23
23 24
24 25
25 26
26 28
27 5
28 29
29 30
30 31
31 32
32 33
32 46
33 34
34 35
35 36
36 37
37 39
38 49
39 40
39 41
40 41
41 42
42 43
43 44
44 45
45 46
46 47
47 48
48 50
49 60
50 51
51 52
51 101
52 53
53 54
54 55
55 56
56 57
57 58
58 59
59 61
60 71
61 62
61 66
62 63
63 64
64 65
65 94
66 67
67 68
68 69
69 70
70 72
71 82
71 46
72 73
72 94
73 74
73 94
74 75
75 76
76 77
77 78
77 90
78 79
79 80
79 83
80 81
81 85
82 93
83 84
84 85
85 86
86 87
87 88
88 89
89 69
90 91
91 92
92 69
93 3
93 20
94 95
95 96
96 97
97 98
98 99
98 101
99 100
100 5
101 102
102 103
103 4
